CMD:
./solvers/bin/cadical --plain --no-reduce -t 1600 ./data/cnfs//pdtpmscoherence/pdtpmscoherence.54.cnf

c --- [ banner ] -------------------------------------------------------------
c 
c CaDiCaL SAT Solver
c Copyright (c) 2016-2024
c A. Biere, M. Fleury, N. Froleyks, K. Fazekas, F. Pollitt, T. Faller
c JKU Linz, University of Freiburg, TU Wien
c 
c Version 2.1.3 5296d3d2a9bf48c154ab2acb5e44625776d821bf
c g++ (Gentoo 12.3.1_p20230526 p2) 12.3.1 20230526 -Wall -Wextra -O3 -DNDEBUG
c Sat Aug 9 07:26:21 PDT 2025 Linux cedar2.int.cedar.computecanada.ca 5.14.0-362.24.2.el9_3.x86_64 x86_64
c 
c --- [ limit ] --------------------------------------------------------------
c 
c setting time limit to 1600 seconds real time (due to '-t 1600')
c 
c --- [ parsing input ] ------------------------------------------------------
c 
c reading DIMACS file from './data/cnfs//pdtpmscoherence/pdtpmscoherence.54.cnf'
c opening file to read './data/cnfs//pdtpmscoherence/pdtpmscoherence.54.cnf'
c found 'p cnf 66422 197597' header
c parsed 197597 clauses in 0.03 seconds process time
c 
c --- [ options ] ------------------------------------------------------------
c 
c   --compact=false                (different from default 'true')
c   --decompose=false              (different from default 'true')
c   --deduplicate=false            (different from default 'true')
c   --elim=false                   (different from default 'true')
c   --probe=false                  (different from default 'true')
c   --reduce=false                 (different from default 'true')
c   --subsume=false                (different from default 'true')
c   --ternary=false                (different from default 'true')
c   --transred=false               (different from default 'true')
c   --vivify=false                 (different from default 'true')
c 
c --- [ solving ] ------------------------------------------------------------
c 
c time measured in process time since initialization
c 
c  seconds  reductions  redundant  irredundant
c         MB    restarts       trail       variables
c          level   conflicts       glue         remaining
c 
c *  0.03 34  0 0   0    0    0  0% 0 194573 63438 96%
c {  0.04 35  0 0   0    0    0  0% 0 194573 63438 96%
c i  0.05 35 47 0   7  139  126  8% 3 194573 63437 96%
c i  0.05 35 63 0   7  215  196 10% 2 194573 63436 96%
c i  0.05 35 66 0   7  301  268 10% 2 194573 63435 96%
c i  0.05 35 70 0   7  337  299 11% 2 194573 63434 96%
c i  0.05 35 73 0  16  424  378 12% 2 194573 63433 95%
c i  0.05 35 73 0  18  448  399 12% 2 194573 63432 95%
c i  0.06 35 69 0  18  494  438 11% 2 194573 63430 95%
c i  0.06 35 68 0  18  508  447 11% 2 194573 63428 95%
c i  0.06 35 69 0  18  559  492 11% 2 194573 63427 95%
c i  0.06 35 68 0  26  680  595 11% 2 194573 63425 95%
c i  0.06 35 62 0  31  799  704 11% 2 194573 63423 95%
c i  0.07 35 61 0  48  868  766 11% 2 194573 63421 95%
c i  0.07 35 61 0  49  871  768 11% 2 194573 63420 95%
c i  0.07 35 61 0  50  936  823 11% 2 194573 63418 95%
c i  0.07 35 61 0  50  943  829 11% 2 194573 63416 95%
c }  0.07 35 61 0  50 1001  886 11% 2 194573 63416 95%
c [  0.07 35  0 0  50 1001  886  0% 0 194573 63416 95%
c O  0.07 35 12 0  50 1002  887 10% 2 194573 63416 95%
c 
c  seconds   reductions  redundant  irredundant
c         MB     restarts       trail       variables
c           level   conflicts       glue         remaining
c 
c i  0.14 35 372 0  51 2220 2038 82% 5 194573 63415 95%
c i  0.15 35 323 0  51 2634 2406 65% 5 194573 63413 95%
c ]  0.18 36 285 0  51 3001 2736 56% 5 194573 63413 95%
c {  0.18 36 61 0  51 3001 2736 11% 2 194573 63413 95%
c F  0.18 36 61 0  51 3003 2738 11% 2 194573 63413 95%
c i  0.18 36 59 0  54 3068 2798 11% 2 194573 63412 95%
c i  0.18 36 58 0  55 3082 2808 11% 2 194573 63410 95%
c i  0.22 36 46 0 287 4037 3687 10% 3 194573 63408 95%
c i  0.22 36 46 0 300 4088 3734 10% 3 194573 63403 95%
c i  0.23 36 48 0 320 4178 3814 10% 3 194573 63402 95%
c i  0.24 36 49 0 334 4379 3996 10% 3 194573 63400 95%
c i  0.24 36 48 0 348 4457 4070 10% 3 194573 63398 95%
c i  0.24 36 48 0 358 4497 4107 10% 3 194573 63397 95%
c i  0.24 36 48 0 370 4544 4151 10% 3 194573 63396 95%
c i  0.25 36 48 0 395 4770 4358 10% 3 194573 63395 95%
c i  0.25 36 47 0 405 4819 4404 10% 3 194573 63394 95%
c i  0.26 36 47 0 438 5050 4604 10% 3 194573 63393 95%
c i  0.26 36 46 0 448 5086 4636 10% 3 194573 63391 95%
c i  0.27 36 46 0 489 5413 4940 11% 3 194573 63390 95%
c i  0.28 36 45 0 506 5583 5091 11% 3 194573 63388 95%
c 
c  seconds  reductions  redundant  irredundant
c         MB    restarts       trail       variables
c          level   conflicts       glue         remaining
c 
c i  0.28 36 45 0 512 5626 5129 11% 3 194573 63387 95%
c i  0.28 36 45 0 515 5699 5193 11% 3 194573 63385 95%
c i  0.29 36 44 0 532 5863 5345 10% 3 194573 63384 95%
c i  0.29 36 44 0 554 5940 5413 10% 3 194573 63380 95%
... skipped 578 lines ...
c { 532.02 459 58 0 55195 1023008 959409 34% 9 185431 62384 94%
c # 557.59 469 58 0 57579 1035078 970580 33% 9 185431 62384 94%
c i 577.69 478 58 0 59452 1044594 979446 34% 9 185431 62383 94%
c i 595.59 484 58 0 60882 1054662 988882 34% 9 185431 62382 94%
c i 608.25 488 58 0 61913 1060856 994739 35% 10 185431 62381 94%
c i 616.03 490 57 0 62504 1065331 998901 34% 10 185431 62380 94%
c i 628.49 493 58 0 63309 1072744 1005894 35% 10 185431 62379 94%
c i 639.37 496 58 0 64073 1079325 1012074 36% 10 185431 62378 94%
c B 643.19 497 58 0 64412 1081079 1013732 36% 10 185431 62378 94%
c W 730.39 554 58 0 70451 1128083 1057345 37% 10 185410 62378 94%
c i 746.70 554 58 0 71590 1136874 1065715 38% 10 185410 62377 94%
c i 752.70 554 58 0 71898 1141208 1069803 38% 10 185410 62376 94%
c i 780.99 556 58 0 73532 1158856 1086505 39% 10 185410 62374 94%
c 
c  seconds    reductions         redundant    irredundant
c           MB     restarts              trail        variables
c            level       conflicts           glue          remaining
c 
c F 810.24 558 59 0 75212 1176087 1102757 40% 11 185410 62374 94%
c i 890.68 563 59 0 79831 1220274 1144478 40% 11 185410 62373 94%
c B 899.33 563 59 0 80282 1225088 1149028 40% 11 185410 62373 94%
c W 991.60 616 60 0 85248 1275089 1196340 43% 11 185393 62373 94%
c i 996.98 616 60 0 85442 1278766 1199845 43% 11 185393 62372 94%
c i 1018.41 616 60 0 86710 1288990 1209476 43% 11 185393 62371 94%
c i 1039.27 617 60 0 87679 1300561 1220406 43% 11 185393 62370 94%
c # 1084.48 617 60 0 89876 1326092 1244285 43% 11 185393 62370 94%
c i 1087.10 617 60 0 90014 1327799 1245866 43% 11 185393 62369 94%
c i 1180.22 618 60 0 94617 1375538 1291072 44% 11 185393 62368 94%
c B 1186.58 618 60 0 94978 1378093 1293514 44% 11 185393 62368 94%
c i 1191.04 618 60 0 95225 1379943 1295274 44% 11 185393 62367 94%
c i 1250.41 632 58 0 97773 1412625 1326148 44% 11 185393 62366 94%
c i 1279.52 638 59 0 99042 1428884 1341404 45% 11 185393 62365 94%
c W 1283.37 681 59 0 99129 1431095 1343496 45% 11 185366 62365 94%
c F 1398.28 684 59 0 104473 1485096 1394599 45% 11 185366 62365 94%
c i 1412.35 684 59 0 105108 1491659 1400851 45% 11 185366 62362 94%
c i 1436.97 684 59 0 106260 1502981 1411649 45% 11 185366 62361 94%
c i 1482.29 684 58 0 108427 1523980 1431378 44% 12 185366 62360 94%
c B 1517.67 685 60 0 109795 1540097 1446666 45% 12 185366 62360 94%
c 
c   seconds    reductions          redundant    irredundant
c            MB     restarts               trail        variables
c             level        conflicts           glue          remaining
c 
c i 1565.20 703 58 0 111672 1563746 1467547 43% 12 185366 62355 94%
c } 1594.65 703 57 0 113055 1576111 1479263 44% 12 185366 62355 94%
c ? 1594.65 703 57 0 113055 1576111 1479263 44% 12 185366 62355 94%
c 
c --- [ result ] -------------------------------------------------------------
c 
c UNKNOWN
c 
c --- [ run-time profiling ] -------------------------------------------------
c 
c process time taken by individual solving procedures
c (percentage relative to process time for solving)
c 
c      1594.62  100.00% search
c      1236.07   77.51% unstable
c       354.93   22.26% stable
c         3.61    0.23% walk
c         0.03    0.00% parse
c         0.01    0.00% lucky
c         0.00    0.00% simplify
c   =================================
c      1594.62  100.00% solve
c 
c last line shows process time for solving
c (percentage relative to total process time)
c 
c --- [ statistics ] ---------------------------------------------------------
c 
c chronological:            448258        28.44 %  of conflicts
c conflicts:               1576111       988.39    per second
c decisions:               8007325      5021.46    per second
c fixed:                      4067         6.12 %  of all variables
c learned:                 1539578        97.68 %  per conflict
c learned_lits:          216583734       100.00 %  learned literals
c minimized:                     0         0.00 %  learned literals
c shrunken:               26401125        12.19 %  learned literals
c minishrunken:           86220367        39.81 %  learned literals
c otfs:                       5011         0.32 %  of conflict
c propagations:         4391470861         2.75 M  per second
c rephased:                     55     28656.56    interval
c restarts:                 113055        13.94    interval
c stabilizing:                   5        43.27 %  of conflicts
c subsumed:                  59601         3.44 %  of all clauses
c strengthened:               4955         0.29 %  of all clauses
c walked:                       17     92712.41    interval
c 
c seconds are measured in process time for solving
c 
c --- [ resources ] ----------------------------------------------------------
c 
c total process time since initialization:      1594.65    seconds
c total real time since initialization:         1600.00    seconds
c maximum resident set size of process:         1025.49    MB
c 
c --- [ shutting down ] ------------------------------------------------------
c 
c exit 0
